66
c numero: 66
c nombre: n-50-d-0.3
c densidad: 0.3
p edges 50 391
e 1 4
e 1 6
e 1 7
e 1 13
e 1 17
e 1 19
e 1 22
e 1 23
e 1 25
e 1 26
e 1 30
e 1 31
e 1 35
e 1 36
e 1 38
e 2 6
e 2 8
e 2 9
e 2 10
e 2 16
e 2 17
e 2 19
e 2 20
e 2 22
e 2 23
e 2 29
e 2 32
e 2 34
e 2 42
e 2 43
e 2 47
e 2 49
e 2 50
e 3 4
e 3 7
e 3 8
e 3 13
e 3 15
e 3 19
e 3 26
e 3 34
e 3 43
e 3 47
e 3 49
e 4 5
e 4 8
e 4 9
e 4 11
e 4 14
e 4 18
e 4 29
e 4 31
e 4 37
e 4 41
e 4 42
e 4 45
e 5 8
e 5 9
e 5 10
e 5 14
e 5 22
e 5 25
e 5 27
e 5 28
e 5 39
e 5 40
e 5 45
e 6 7
e 6 9
e 6 10
e 6 12
e 6 16
e 6 17
e 6 21
e 6 22
e 6 24
e 6 25
e 6 27
e 6 28
e 6 38
e 6 41
e 6 42
e 7 8
e 7 10
e 7 13
e 7 14
e 7 15
e 7 16
e 7 19
e 7 24
e 7 27
e 7 30
e 7 37
e 7 46
e 7 48
e 7 49
e 8 14
e 8 18
e 8 21
e 8 23
e 8 26
e 8 28
e 8 29
e 8 30
e 8 32
e 8 35
e 8 45
e 8 46
e 8 47
e 8 50
e 9 10
e 9 12
e 9 13
e 9 17
e 9 20
e 9 25
e 9 31
e 9 37
e 9 38
e 9 42
e 9 46
e 9 47
e 9 48
e 9 49
e 10 11
e 10 20
e 10 22
e 10 25
e 10 27
e 10 28
e 10 32
e 10 33
e 10 34
e 10 42
e 10 43
e 10 45
e 11 15
e 11 19
e 11 27
e 11 29
e 11 33
e 11 39
e 11 40
e 11 44
e 11 45
e 11 47
e 11 50
e 12 15
e 12 16
e 12 22
e 12 23
e 12 26
e 12 29
e 12 31
e 12 32
e 12 38
e 12 40
e 12 43
e 12 46
e 12 48
e 12 49
e 13 15
e 13 19
e 13 21
e 13 26
e 13 27
e 13 32
e 13 38
e 13 40
e 13 42
e 13 43
e 13 46
e 13 47
e 14 15
e 14 16
e 14 17
e 14 18
e 14 20
e 14 21
e 14 24
e 14 27
e 14 29
e 14 30
e 14 34
e 14 36
e 14 38
e 14 40
e 14 45
e 14 50
e 15 19
e 15 20
e 15 21
e 15 27
e 15 30
e 15 32
e 15 37
e 15 39
e 15 44
e 16 18
e 16 20
e 16 26
e 16 27
e 16 28
e 16 29
e 16 32
e 16 33
e 16 36
e 16 40
e 16 42
e 16 44
e 16 48
e 17 18
e 17 20
e 17 22
e 17 23
e 17 24
e 17 25
e 17 29
e 17 32
e 17 34
e 17 39
e 17 40
e 17 44
e 17 45
e 17 49
e 18 19
e 18 20
e 18 22
e 18 23
e 18 34
e 18 35
e 18 36
e 18 40
e 18 42
e 18 45
e 19 21
e 19 22
e 19 24
e 19 31
e 19 32
e 19 37
e 19 40
e 19 45
e 20 24
e 20 27
e 20 32
e 20 36
e 20 37
e 20 39
e 20 40
e 20 43
e 20 44
e 20 46
e 20 47
e 21 25
e 21 30
e 21 32
e 21 35
e 21 36
e 21 40
e 21 44
e 21 48
e 22 25
e 22 26
e 22 31
e 22 32
e 22 33
e 22 37
e 22 40
e 22 43
e 22 45
e 22 48
e 22 50
e 23 24
e 23 29
e 23 47
e 23 48
e 23 49
e 24 26
e 24 28
e 24 31
e 24 34
e 24 42
e 24 43
e 24 44
e 24 47
e 24 48
e 25 28
e 25 29
e 25 38
e 25 40
e 25 45
e 25 47
e 25 48
e 25 50
e 26 29
e 26 32
e 26 35
e 26 38
e 26 39
e 26 43
e 26 45
e 26 46
e 27 29
e 27 30
e 27 31
e 27 34
e 27 35
e 27 36
e 27 38
e 27 41
e 27 42
e 27 44
e 27 45
e 27 47
e 27 50
e 28 32
e 28 34
e 28 35
e 28 36
e 28 38
e 28 39
e 28 40
e 28 50
e 29 30
e 29 32
e 29 35
e 30 33
e 30 34
e 30 36
e 30 40
e 30 42
e 30 43
e 30 46
e 31 37
e 31 40
e 31 42
e 31 47
e 32 33
e 32 39
e 32 41
e 32 42
e 32 45
e 32 47
e 33 35
e 33 37
e 33 39
e 33 48
e 33 49
e 33 50
e 34 37
e 34 39
e 34 40
e 34 44
e 34 45
e 34 49
e 34 50
e 35 36
e 35 37
e 35 41
e 35 48
e 36 37
e 36 40
e 36 42
e 36 48
e 36 50
e 37 38
e 37 42
e 37 44
e 37 46
e 37 47
e 37 48
e 37 49
e 38 47
e 39 40
e 39 41
e 39 43
e 39 48
e 40 41
e 40 50
e 41 46
e 41 48
e 42 44
e 42 47
e 42 49
e 43 44
e 43 46
e 45 47
e 45 49
e 46 49
e 47 49
