res_brown_5min/66.out
colores promedio: 6.0000
tiempo promedio: 117.9700
instancias que se pasaron del tiempo: 2
